\ LP format - for model browsing. Use MPS format to capture full model detail.
Minimize
  - 821585 Y0_0_1_1_0 - 821585 Y0_0_1_1_1 - 720370 Y0_0_2_1_0
   - 720370 Y0_0_2_1_1 - 331285 Y0_0_3_1_0 - 331285 Y0_0_3_1_1
   - 394208 Y1_0_2_1_0 - 394208 Y1_0_2_1_1 - 1.43273e+06 Y1_0_3_1_0
   - 1.43273e+06 Y1_0_3_1_1 - 655836 Y2_0_3_1_0 - 655836 Y2_0_3_1_1
Subject To
 R0: X0_0_0 + X0_0_1 = 1
 R1: X0_1_0 + X0_1_1 = 1
 R2: X1_0_0 + X1_0_1 = 1
 R3: X1_1_0 + X1_1_1 = 1
 R4: X2_0_0 + X2_0_1 = 1
 R5: X2_1_0 + X2_1_1 = 1
 R6: X3_0_0 + X3_0_1 = 1
 R7: X3_1_0 + X3_1_1 = 1
 R8: X0_0_0 + X0_1_0 = 1
 R9: X1_0_0 + X1_1_0 = 1
 R10: X2_0_0 + X2_1_0 = 1
 R11: X3_0_0 + X3_1_0 = 1
 R12: X0_0_1 + X0_1_1 = 1
 R13: X1_0_1 + X1_1_1 = 1
 R14: X2_0_1 + X2_1_1 = 1
 R15: X3_0_1 + X3_1_1 = 1
 R16: - X0_0_0 + Y0_0_1_1_0 <= 0
 R17: - X0_0_0 + Y0_0_1_1_0 <= 0
 R18: - 2 X0_0_0 + Y0_0_1_1_0 >= -1
 R19: - X0_0_0 + Y0_0_2_1_0 <= 0
 R20: - X0_1_0 + Y0_0_2_1_0 <= 0
 R21: - X0_0_0 - X0_1_0 + Y0_0_2_1_0 >= -1
 R22: - X0_0_0 + Y0_0_3_1_0 <= 0
 R23: - X1_0_0 + Y0_0_3_1_0 <= 0
 R24: - X0_0_0 - X1_0_0 + Y0_0_3_1_0 >= -1
 R25: - X0_1_0 + Y1_0_2_1_0 <= 0
 R26: - X0_0_0 + Y1_0_2_1_0 <= 0
 R27: - X0_0_0 - X0_1_0 + Y1_0_2_1_0 >= -1
 R28: - X0_1_0 + Y1_0_3_1_0 <= 0
 R29: - X0_1_0 + Y1_0_3_1_0 <= 0
 R30: - 2 X0_1_0 + Y1_0_3_1_0 >= -1
 R31: - X1_0_0 + Y2_0_3_1_0 <= 0
 R32: - X0_0_0 + Y2_0_3_1_0 <= 0
 R33: - X0_0_0 - X1_0_0 + Y2_0_3_1_0 >= -1
 R34: - X0_0_1 + Y0_0_1_1_1 <= 0
 R35: - X0_0_1 + Y0_0_1_1_1 <= 0
 R36: - 2 X0_0_1 + Y0_0_1_1_1 >= -1
 R37: - X0_0_1 + Y0_0_2_1_1 <= 0
 R38: - X0_1_1 + Y0_0_2_1_1 <= 0
 R39: - X0_0_1 - X0_1_1 + Y0_0_2_1_1 >= -1
 R40: - X0_0_1 + Y0_0_3_1_1 <= 0
 R41: - X1_0_1 + Y0_0_3_1_1 <= 0
 R42: - X0_0_1 - X1_0_1 + Y0_0_3_1_1 >= -1
 R43: - X0_1_1 + Y1_0_2_1_1 <= 0
 R44: - X0_0_1 + Y1_0_2_1_1 <= 0
 R45: - X0_0_1 - X0_1_1 + Y1_0_2_1_1 >= -1
 R46: - X0_1_1 + Y1_0_3_1_1 <= 0
 R47: - X0_1_1 + Y1_0_3_1_1 <= 0
 R48: - 2 X0_1_1 + Y1_0_3_1_1 >= -1
 R49: - X1_0_1 + Y2_0_3_1_1 <= 0
 R50: - X0_0_1 + Y2_0_3_1_1 <= 0
 R51: - X0_0_1 - X1_0_1 + Y2_0_3_1_1 >= -1
Bounds
Binaries
 X0_0_0 X0_0_1 X0_1_0 X0_1_1 X1_0_0 X1_0_1 X1_1_0 X1_1_1 X2_0_0 X2_0_1
 X2_1_0 X2_1_1 X3_0_0 X3_0_1 X3_1_0 X3_1_1 Y0_0_1_1_0 Y0_0_1_1_1 Y0_0_2_1_0
 Y0_0_2_1_1 Y0_0_3_1_0 Y0_0_3_1_1 Y1_0_2_1_0 Y1_0_2_1_1 Y1_0_3_1_0
 Y1_0_3_1_1 Y2_0_3_1_0 Y2_0_3_1_1
End
